data;

param num_top:=2;

#nodes and edges of the physical network
param n := 10;

set E := (1,2) (1,3) (1,7) (2,4) (2,7) (3,5) (4,8) (5,6) (5,7) (6,7) (6,9) (7,8) (7,9) (8,10) (9,10) ;

#nodes and edges of the virtual networks
set Nl[1] := 2 8 7 9 ;
set Nl[2] := 3 5 7 10 ;

set El[1] := (2,8) (7,8) (7,9) (2,9) ;
set El[2] := (3,5) (5,7) (7,10) (3,10) (5,10) (3,7) ;
